clingo version 5.6.2
Reading from ...gen_asp_scripts/ijp_expt_cases-1041.dl
Solving...
Progression : [1;inf]
Progression : [2;inf]
UNSATISFIABLE

Models       : 0
Bounds       : [2;*]
Calls        : 1
Time         : 0.348s (Solving: 0.16s 1st Model: 0.00s Unsat: 0.16s)
CPU Time     : 1.353s
Threads      : 32       (Winner: 19)
